0
160
8
9
7
13
10,40,60,105
19
20
21
22
26
140,164
114
39,147
29
80,178
32
33
8,61
49
36
38
25,42,65,72,177
2,23,82,89,134,148,155,161,174
44
47
50
29,54
1,175,181
58
15,144
61
63
64
66
67
68
69
116,158
71
17,73,128,171
17,73,128,132
21,47,103
27,59,95
92,127
52,170
91
31,77
92
33,143
11,16,30,51,78,96,101,104,117,118,129,141,179
103
14,48,56,62,100,112,137,139,154
17,73,90,111
107
17,73,90,128
20,52
108
136,168,182
3,79,122,130,156,165
113
24
88,151
12,67
133
41,79,85,97,122,156,165
135
142,150
138
28,70
45,119
142
84,121
4,16,34,35,37,43,46,53,55,57,81,86,87,98,109,117,118,123,131,146,159,172,180
145
41,79,85,122,130,156,165
5,106,169
149
149,176
6,18,74,83,93,94
157
41,79,85,115,122,156,165
162
124,153
79,99,122,130,156,165
163
120,152
75,76,125,126,166,167
32,64
102,110
173
176
21,47,50,71,103,113
